(declare-const a Real)
(declare-const b Real)
(declare-const c Real)
(assert (= (+ a b c) 3))
(assert (> a 0))
(assert (> b 0))
(assert (> c 0))
(assert (not (<= (+ (* -1 (pow (+ (pow a 2) (pow b 2) (* a b)) (/ 1 2))) (* (pow 3 (/ 1 2)) (+ (* (/ 1 3) a) (* (/ 1 3) b) (* (/ 1 3) c))) (* (pow (+ (pow a 2) (pow c 2) (* a c)) (/ -1 2)) (+ (* -1 (pow b 2)) (* -1 (pow c 2)) (* -1 b c))) (* (pow (+ (pow b 2) (pow c 2) (* b c)) (/ -1 2)) (+ (* -1 (pow a 2)) (* -1 (pow c 2)) (* -1 a c)))) 0)))
(check-sat)
(get-model)
(exit)